% Instancia generada para Grupo 5
% Diámetros: [75, 100, 150] mm
% Capacidades: [795, 1414, 3181] l/min
% Demanda total: 3762 l/min
% Costos tipo a: 1562, tipo b: 1588
% Semilla: 351037

nP = 3;
nT = 20;
nC1 = 18;
nC2 = 35;
N = 76;

nA = 1050;
arc_from = [1, 1, 1, 1, 1, 1, 1, 1, 1, 1, 1, 1, 1, 1, 1, 1, 1, 1, 1, 1, 2, 2, 2, 2, 2, 2, 2, 2, 2, 2, 2, 2, 2, 2, 2, 2, 2, 2, 2, 2, 3, 3, 3, 3, 3, 3, 3, 3, 3, 3, 3, 3, 3, 3, 3, 3, 3, 3, 3, 3, 4, 4, 4, 4, 4, 4, 4, 4, 4, 4, 4, 4, 4, 4, 4, 4, 4, 4, 5, 5, 5, 5, 5, 5, 5, 5, 5, 5, 5, 5, 5, 5, 5, 5, 5, 5, 6, 6, 6, 6, 6, 6, 6, 6, 6, 6, 6, 6, 6, 6, 6, 6, 6, 6, 7, 7, 7, 7, 7, 7, 7, 7, 7, 7, 7, 7, 7, 7, 7, 7, 7, 7, 8, 8, 8, 8, 8, 8, 8, 8, 8, 8, 8, 8, 8, 8, 8, 8, 8, 8, 9, 9, 9, 9, 9, 9, 9, 9, 9, 9, 9, 9, 9, 9, 9, 9, 9, 9, 10, 10, 10, 10, 10, 10, 10, 10, 10, 10, 10, 10, 10, 10, 10, 10, 10, 10, 11, 11, 11, 11, 11, 11, 11, 11, 11, 11, 11, 11, 11, 11, 11, 11, 11, 11, 12, 12, 12, 12, 12, 12, 12, 12, 12, 12, 12, 12, 12, 12, 12, 12, 12, 12, 13, 13, 13, 13, 13, 13, 13, 13, 13, 13, 13, 13, 13, 13, 13, 13, 13, 13, 14, 14, 14, 14, 14, 14, 14, 14, 14, 14, 14, 14, 14, 14, 14, 14, 14, 14, 15, 15, 15, 15, 15, 15, 15, 15, 15, 15, 15, 15, 15, 15, 15, 15, 15, 15, 16, 16, 16, 16, 16, 16, 16, 16, 16, 16, 16, 16, 16, 16, 16, 16, 16, 16, 17, 17, 17, 17, 17, 17, 17, 17, 17, 17, 17, 17, 17, 17, 17, 17, 17, 17, 18, 18, 18, 18, 18, 18, 18, 18, 18, 18, 18, 18, 18, 18, 18, 18, 18, 18, 19, 19, 19, 19, 19, 19, 19, 19, 19, 19, 19, 19, 19, 19, 19, 19, 19, 19, 20, 20, 20, 20, 20, 20, 20, 20, 20, 20, 20, 20, 20, 20, 20, 20, 20, 20, 21, 21, 21, 21, 21, 21, 21, 21, 21, 21, 21, 21, 21, 21, 21, 21, 21, 21, 22, 22, 22, 22, 22, 22, 22, 22, 22, 22, 22, 22, 22, 22, 22, 22, 22, 22, 23, 23, 23, 23, 23, 23, 23, 23, 23, 23, 23, 23, 23, 23, 23, 23, 23, 23, 24, 24, 24, 24, 24, 24, 24, 24, 24, 24, 24, 24, 24, 24, 24, 24, 24, 24, 24, 24, 24, 24, 24, 24, 24, 24, 24, 24, 24, 24, 24, 24, 24, 24, 24, 25, 25, 25, 25, 25, 25, 25, 25, 25, 25, 25, 25, 25, 25, 25, 25, 25, 25, 25, 25, 25, 25, 25, 25, 25, 25, 25, 25, 25, 25, 25, 25, 25, 25, 25, 26, 26, 26, 26, 26, 26, 26, 26, 26, 26, 26, 26, 26, 26, 26, 26, 26, 26, 26, 26, 26, 26, 26, 26, 26, 26, 26, 26, 26, 26, 26, 26, 26, 26, 26, 27, 27, 27, 27, 27, 27, 27, 27, 27, 27, 27, 27, 27, 27, 27, 27, 27, 27, 27, 27, 27, 27, 27, 27, 27, 27, 27, 27, 27, 27, 27, 27, 27, 27, 27, 28, 28, 28, 28, 28, 28, 28, 28, 28, 28, 28, 28, 28, 28, 28, 28, 28, 28, 28, 28, 28, 28, 28, 28, 28, 28, 28, 28, 28, 28, 28, 28, 28, 28, 28, 29, 29, 29, 29, 29, 29, 29, 29, 29, 29, 29, 29, 29, 29, 29, 29, 29, 29, 29, 29, 29, 29, 29, 29, 29, 29, 29, 29, 29, 29, 29, 29, 29, 29, 29, 30, 30, 30, 30, 30, 30, 30, 30, 30, 30, 30, 30, 30, 30, 30, 30, 30, 30, 30, 30, 30, 30, 30, 30, 30, 30, 30, 30, 30, 30, 30, 30, 30, 30, 30, 31, 31, 31, 31, 31, 31, 31, 31, 31, 31, 31, 31, 31, 31, 31, 31, 31, 31, 31, 31, 31, 31, 31, 31, 31, 31, 31, 31, 31, 31, 31, 31, 31, 31, 31, 32, 32, 32, 32, 32, 32, 32, 32, 32, 32, 32, 32, 32, 32, 32, 32, 32, 32, 32, 32, 32, 32, 32, 32, 32, 32, 32, 32, 32, 32, 32, 32, 32, 32, 32, 33, 33, 33, 33, 33, 33, 33, 33, 33, 33, 33, 33, 33, 33, 33, 33, 33, 33, 33, 33, 33, 33, 33, 33, 33, 33, 33, 33, 33, 33, 33, 33, 33, 33, 33, 34, 34, 34, 34, 34, 34, 34, 34, 34, 34, 34, 34, 34, 34, 34, 34, 34, 34, 34, 34, 34, 34, 34, 34, 34, 34, 34, 34, 34, 34, 34, 34, 34, 34, 34, 35, 35, 35, 35, 35, 35, 35, 35, 35, 35, 35, 35, 35, 35, 35, 35, 35, 35, 35, 35, 35, 35, 35, 35, 35, 35, 35, 35, 35, 35, 35, 35, 35, 35, 35, 36, 36, 36, 36, 36, 36, 36, 36, 36, 36, 36, 36, 36, 36, 36, 36, 36, 36, 36, 36, 36, 36, 36, 36, 36, 36, 36, 36, 36, 36, 36, 36, 36, 36, 36, 37, 37, 37, 37, 37, 37, 37, 37, 37, 37, 37, 37, 37, 37, 37, 37, 37, 37, 37, 37, 37, 37, 37, 37, 37, 37, 37, 37, 37, 37, 37, 37, 37, 37, 37, 38, 38, 38, 38, 38, 38, 38, 38, 38, 38, 38, 38, 38, 38, 38, 38, 38, 38, 38, 38, 38, 38, 38, 38, 38, 38, 38, 38, 38, 38, 38, 38, 38, 38, 38, 39, 39, 39, 39, 39, 39, 39, 39, 39, 39, 39, 39, 39, 39, 39, 39, 39, 39, 39, 39, 39, 39, 39, 39, 39, 39, 39, 39, 39, 39, 39, 39, 39, 39, 39, 40, 40, 40, 40, 40, 40, 40, 40, 40, 40, 40, 40, 40, 40, 40, 40, 40, 40, 40, 40, 40, 40, 40, 40, 40, 40, 40, 40, 40, 40, 40, 40, 40, 40, 40, 41, 41, 41, 41, 41, 41, 41, 41, 41, 41, 41, 41, 41, 41, 41, 41, 41, 41, 41, 41, 41, 41, 41, 41, 41, 41, 41, 41, 41, 41, 41, 41, 41, 41, 41];
arc_to   = [4, 5, 6, 7, 8, 9, 10, 11, 12, 13, 14, 15, 16, 17, 18, 19, 20, 21, 22, 23, 4, 5, 6, 7, 8, 9, 10, 11, 12, 13, 14, 15, 16, 17, 18, 19, 20, 21, 22, 23, 4, 5, 6, 7, 8, 9, 10, 11, 12, 13, 14, 15, 16, 17, 18, 19, 20, 21, 22, 23, 24, 25, 26, 27, 28, 29, 30, 31, 32, 33, 34, 35, 36, 37, 38, 39, 40, 41, 24, 25, 26, 27, 28, 29, 30, 31, 32, 33, 34, 35, 36, 37, 38, 39, 40, 41, 24, 25, 26, 27, 28, 29, 30, 31, 32, 33, 34, 35, 36, 37, 38, 39, 40, 41, 24, 25, 26, 27, 28, 29, 30, 31, 32, 33, 34, 35, 36, 37, 38, 39, 40, 41, 24, 25, 26, 27, 28, 29, 30, 31, 32, 33, 34, 35, 36, 37, 38, 39, 40, 41, 24, 25, 26, 27, 28, 29, 30, 31, 32, 33, 34, 35, 36, 37, 38, 39, 40, 41, 24, 25, 26, 27, 28, 29, 30, 31, 32, 33, 34, 35, 36, 37, 38, 39, 40, 41, 24, 25, 26, 27, 28, 29, 30, 31, 32, 33, 34, 35, 36, 37, 38, 39, 40, 41, 24, 25, 26, 27, 28, 29, 30, 31, 32, 33, 34, 35, 36, 37, 38, 39, 40, 41, 24, 25, 26, 27, 28, 29, 30, 31, 32, 33, 34, 35, 36, 37, 38, 39, 40, 41, 24, 25, 26, 27, 28, 29, 30, 31, 32, 33, 34, 35, 36, 37, 38, 39, 40, 41, 24, 25, 26, 27, 28, 29, 30, 31, 32, 33, 34, 35, 36, 37, 38, 39, 40, 41, 24, 25, 26, 27, 28, 29, 30, 31, 32, 33, 34, 35, 36, 37, 38, 39, 40, 41, 24, 25, 26, 27, 28, 29, 30, 31, 32, 33, 34, 35, 36, 37, 38, 39, 40, 41, 24, 25, 26, 27, 28, 29, 30, 31, 32, 33, 34, 35, 36, 37, 38, 39, 40, 41, 24, 25, 26, 27, 28, 29, 30, 31, 32, 33, 34, 35, 36, 37, 38, 39, 40, 41, 24, 25, 26, 27, 28, 29, 30, 31, 32, 33, 34, 35, 36, 37, 38, 39, 40, 41, 24, 25, 26, 27, 28, 29, 30, 31, 32, 33, 34, 35, 36, 37, 38, 39, 40, 41, 24, 25, 26, 27, 28, 29, 30, 31, 32, 33, 34, 35, 36, 37, 38, 39, 40, 41, 24, 25, 26, 27, 28, 29, 30, 31, 32, 33, 34, 35, 36, 37, 38, 39, 40, 41, 42, 43, 44, 45, 46, 47, 48, 49, 50, 51, 52, 53, 54, 55, 56, 57, 58, 59, 60, 61, 62, 63, 64, 65, 66, 67, 68, 69, 70, 71, 72, 73, 74, 75, 76, 42, 43, 44, 45, 46, 47, 48, 49, 50, 51, 52, 53, 54, 55, 56, 57, 58, 59, 60, 61, 62, 63, 64, 65, 66, 67, 68, 69, 70, 71, 72, 73, 74, 75, 76, 42, 43, 44, 45, 46, 47, 48, 49, 50, 51, 52, 53, 54, 55, 56, 57, 58, 59, 60, 61, 62, 63, 64, 65, 66, 67, 68, 69, 70, 71, 72, 73, 74, 75, 76, 42, 43, 44, 45, 46, 47, 48, 49, 50, 51, 52, 53, 54, 55, 56, 57, 58, 59, 60, 61, 62, 63, 64, 65, 66, 67, 68, 69, 70, 71, 72, 73, 74, 75, 76, 42, 43, 44, 45, 46, 47, 48, 49, 50, 51, 52, 53, 54, 55, 56, 57, 58, 59, 60, 61, 62, 63, 64, 65, 66, 67, 68, 69, 70, 71, 72, 73, 74, 75, 76, 42, 43, 44, 45, 46, 47, 48, 49, 50, 51, 52, 53, 54, 55, 56, 57, 58, 59, 60, 61, 62, 63, 64, 65, 66, 67, 68, 69, 70, 71, 72, 73, 74, 75, 76, 42, 43, 44, 45, 46, 47, 48, 49, 50, 51, 52, 53, 54, 55, 56, 57, 58, 59, 60, 61, 62, 63, 64, 65, 66, 67, 68, 69, 70, 71, 72, 73, 74, 75, 76, 42, 43, 44, 45, 46, 47, 48, 49, 50, 51, 52, 53, 54, 55, 56, 57, 58, 59, 60, 61, 62, 63, 64, 65, 66, 67, 68, 69, 70, 71, 72, 73, 74, 75, 76, 42, 43, 44, 45, 46, 47, 48, 49, 50, 51, 52, 53, 54, 55, 56, 57, 58, 59, 60, 61, 62, 63, 64, 65, 66, 67, 68, 69, 70, 71, 72, 73, 74, 75, 76, 42, 43, 44, 45, 46, 47, 48, 49, 50, 51, 52, 53, 54, 55, 56, 57, 58, 59, 60, 61, 62, 63, 64, 65, 66, 67, 68, 69, 70, 71, 72, 73, 74, 75, 76, 42, 43, 44, 45, 46, 47, 48, 49, 50, 51, 52, 53, 54, 55, 56, 57, 58, 59, 60, 61, 62, 63, 64, 65, 66, 67, 68, 69, 70, 71, 72, 73, 74, 75, 76, 42, 43, 44, 45, 46, 47, 48, 49, 50, 51, 52, 53, 54, 55, 56, 57, 58, 59, 60, 61, 62, 63, 64, 65, 66, 67, 68, 69, 70, 71, 72, 73, 74, 75, 76, 42, 43, 44, 45, 46, 47, 48, 49, 50, 51, 52, 53, 54, 55, 56, 57, 58, 59, 60, 61, 62, 63, 64, 65, 66, 67, 68, 69, 70, 71, 72, 73, 74, 75, 76, 42, 43, 44, 45, 46, 47, 48, 49, 50, 51, 52, 53, 54, 55, 56, 57, 58, 59, 60, 61, 62, 63, 64, 65, 66, 67, 68, 69, 70, 71, 72, 73, 74, 75, 76, 42, 43, 44, 45, 46, 47, 48, 49, 50, 51, 52, 53, 54, 55, 56, 57, 58, 59, 60, 61, 62, 63, 64, 65, 66, 67, 68, 69, 70, 71, 72, 73, 74, 75, 76, 42, 43, 44, 45, 46, 47, 48, 49, 50, 51, 52, 53, 54, 55, 56, 57, 58, 59, 60, 61, 62, 63, 64, 65, 66, 67, 68, 69, 70, 71, 72, 73, 74, 75, 76, 42, 43, 44, 45, 46, 47, 48, 49, 50, 51, 52, 53, 54, 55, 56, 57, 58, 59, 60, 61, 62, 63, 64, 65, 66, 67, 68, 69, 70, 71, 72, 73, 74, 75, 76, 42, 43, 44, 45, 46, 47, 48, 49, 50, 51, 52, 53, 54, 55, 56, 57, 58, 59, 60, 61, 62, 63, 64, 65, 66, 67, 68, 69, 70, 71, 72, 73, 74, 75, 76];

demand = [0, 0, 0, 0, 0, 0, 0, 0, 0, 0, 0, 0, 0, 0, 0, 0, 0, 0, 0, 0, 0, 0, 0, 44, 100, 83, 55, 52, 87, 79, 63, 65, 63, 48, 100, 93, 84, 43, 99, 83, 46, 44, 89, 77, 90, 59, 44, 51, 90, 98, 41, 82, 40, 59, 99, 76, 41, 56, 66, 63, 96, 65, 71, 95, 91, 45, 99, 96, 78, 59, 66, 92, 61, 63, 67, 66];

install_cost = array2d(1..1050, 1..3, [50, 62, 78, 20, 62, 78, 50, 24, 32, 50, 24, 78, 20, 62, 78, 50, 62, 32, 50, 24, 78, 50, 24, 32, 20, 24, 78, 20, 24, 78, 50, 24, 78, 20, 62, 32, 50, 62, 32, 50, 62, 32, 50, 62, 32, 50, 62, 78, 50, 62, 78, 50, 62, 32, 50, 62, 78, 20, 24, 32, 50, 62, 78, 20, 62, 32, 20, 62, 78, 20, 62, 32, 50, 24, 32, 20, 62, 32, 50, 24, 78, 20, 24, 78, 50, 24, 78, 20, 24, 78, 50, 24, 32, 20, 62, 78, 20, 24, 78, 50, 62, 32, 20, 62, 32, 50, 24, 78, 50, 62, 78, 20, 62, 78, 50, 62, 32, 50, 62, 32, 50, 62, 32, 20, 62, 78, 50, 24, 32, 50, 24, 78, 20, 24, 78, 50, 62, 78, 50, 62, 78, 50, 24, 78, 50, 62, 32, 50, 24, 78, 20, 24, 32, 50, 62, 78, 50, 24, 78, 50, 24, 78, 20, 24, 78, 50, 62, 32, 50, 62, 32, 20, 62, 32, 20, 62, 78, 50, 62, 78, 50, 62, 32, 50, 62, 32, 20, 24, 78, 50, 24, 78, 20, 62, 78, 20, 24, 32, 20, 62, 78, 20, 24, 78, 20, 62, 78, 50, 62, 32, 50, 62, 32, 20, 24, 78, 20, 24, 32, 20, 62, 32, 20, 62, 78, 50, 24, 32, 50, 24, 32, 50, 62, 32, 50, 62, 78, 20, 24, 78, 50, 62, 78, 50, 62, 78, 50, 62, 32, 20, 24, 32, 50, 24, 32, 50, 24, 32, 50, 62, 32, 20, 24, 32, 20, 24, 78, 50, 62, 78, 50, 62, 78, 50, 62, 32, 20, 62, 78, 20, 62, 32, 50, 62, 32, 20, 62, 32, 20, 62, 32, 20, 24, 32, 50, 24, 78, 20, 62, 78, 50, 62, 32, 50, 24, 78, 50, 24, 32, 20, 62, 78, 50, 62, 78, 50, 24, 78, 20, 24, 78, 50, 62, 78, 20, 62, 32, 20, 24, 32, 50, 62, 32, 50, 62, 32, 50, 24, 78, 20, 62, 78, 50, 62, 78, 50, 62, 78, 50, 24, 78, 50, 24, 32, 50, 24, 32, 50, 62, 78, 50, 62, 78, 50, 24, 32, 20, 24, 78, 50, 62, 32, 50, 62, 78, 20, 62, 32, 20, 24, 78, 50, 62, 78, 20, 24, 78, 50, 24, 32, 50, 24, 32, 50, 24, 78, 20, 24, 78, 20, 24, 32, 20, 24, 78, 50, 24, 78, 20, 62, 32, 50, 62, 78, 50, 62, 78, 20, 24, 78, 20, 24, 78, 20, 62, 32, 50, 62, 78, 50, 24, 32, 20, 24, 32, 20, 24, 78, 50, 62, 32, 50, 24, 32, 20, 62, 78, 20, 62, 78, 20, 24, 78, 20, 62, 32, 20, 62, 78, 20, 62, 32, 20, 62, 78, 20, 24, 32, 50, 24, 32, 20, 24, 32, 50, 24, 78, 20, 24, 78, 50, 62, 78, 20, 24, 78, 20, 24, 32, 20, 62, 32, 50, 24, 32, 50, 24, 78, 50, 62, 78, 20, 62, 32, 50, 62, 32, 20, 62, 32, 50, 62, 78, 20, 24, 78, 50, 62, 32, 50, 24, 32, 50, 24, 32, 50, 24, 32, 20, 24, 32, 50, 24, 32, 50, 24, 32, 50, 24, 78, 50, 24, 78, 50, 24, 32, 20, 62, 32, 20, 62, 32, 50, 62, 32, 50, 24, 78, 50, 24, 78, 20, 62, 78, 50, 62, 32, 20, 24, 32, 20, 62, 78, 50, 24, 78, 50, 24, 78, 50, 24, 32, 20, 24, 78, 50, 62, 78, 20, 24, 32, 50, 24, 32, 20, 24, 78, 50, 62, 78, 20, 62, 32, 20, 24, 78, 20, 24, 78, 20, 62, 32, 20, 62, 78, 20, 24, 32, 50, 24, 32, 50, 62, 32, 20, 24, 32, 20, 24, 32, 20, 62, 32, 50, 62, 78, 20, 24, 78, 20, 24, 32, 20, 62, 32, 50, 62, 78, 50, 62, 32, 50, 62, 32, 20, 24, 78, 50, 62, 32, 50, 24, 32, 20, 62, 32, 20, 62, 78, 20, 62, 78, 20, 62, 32, 20, 62, 32, 50, 24, 78, 50, 24, 78, 20, 62, 32, 20, 62, 32, 20, 24, 78, 50, 24, 78, 50, 24, 32, 50, 62, 32, 20, 24, 32, 50, 62, 32, 20, 24, 32, 20, 62, 78, 20, 62, 32, 50, 24, 78, 20, 24, 78, 50, 62, 32, 20, 62, 32, 20, 24, 32, 50, 62, 78, 50, 24, 78, 20, 24, 32, 20, 62, 78, 50, 24, 32, 20, 24, 78, 50, 62, 78, 50, 24, 32, 20, 24, 78, 50, 62, 78, 50, 24, 32, 20, 24, 78, 50, 24, 32, 20, 24, 78, 50, 24, 78, 50, 62, 78, 20, 24, 32, 50, 62, 78, 20, 24, 32, 50, 62, 78, 50, 24, 78, 50, 62, 32, 20, 24, 78, 50, 24, 78, 20, 24, 78, 50, 62, 78, 50, 24, 32, 50, 62, 32, 50, 62, 78, 20, 62, 78, 20, 24, 32, 20, 62, 32, 50, 24, 32, 20, 24, 32, 50, 24, 32, 20, 24, 32, 50, 24, 78, 20, 62, 78, 50, 24, 78, 50, 62, 32, 20, 24, 78, 50, 24, 78, 50, 62, 78, 50, 24, 32, 50, 24, 78, 20, 62, 32, 50, 62, 32, 20, 24, 78, 50, 62, 78, 50, 62, 78, 50, 62, 32, 20, 24, 78, 20, 62, 32, 20, 24, 32, 50, 62, 32, 20, 62, 78, 50, 62, 78, 50, 24, 78, 20, 62, 78, 50, 62, 78, 20, 24, 78, 50, 62, 32, 50, 62, 78, 50, 24, 78, 50, 24, 32, 50, 24, 78, 20, 62, 78, 20, 24, 32, 20, 24, 78, 20, 62, 32, 20, 62, 32, 50, 24, 32, 20, 24, 78, 20, 24, 32, 50, 24, 78, 50, 24, 32, 50, 62, 32, 20, 62, 78, 20, 24, 78, 50, 62, 78, 20, 24, 32, 20, 24, 78, 20, 24, 78, 50, 24, 78, 20, 62, 32, 50, 62, 78, 50, 24, 32, 50, 24, 32, 50, 24, 32, 20, 62, 32, 50, 62, 78, 50, 24, 78, 50, 62, 32, 50, 62, 78, 20, 24, 32, 50, 62, 78, 20, 62, 32, 20, 24, 32, 20, 62, 78, 20, 62, 78, 50, 62, 32, 50, 24, 78, 50, 62, 32, 20, 24, 78, 50, 24, 78, 50, 62, 32, 20, 62, 32, 20, 62, 32, 20, 24, 78, 20, 24, 78, 50, 24, 78, 50, 62, 78, 20, 24, 32, 50, 62, 32, 50, 24, 32, 20, 24, 78, 50, 62, 32, 20, 24, 32, 50, 62, 32, 50, 24, 78, 50, 62, 32, 50, 24, 78, 20, 24, 78, 20, 24, 32, 20, 24, 32, 20, 24, 32, 20, 24, 32, 20, 24, 78, 50, 62, 78, 50, 24, 32, 20, 62, 32, 20, 24, 78, 50, 62, 32, 20, 62, 32, 50, 62, 32, 50, 62, 32, 20, 24, 32, 20, 24, 32, 50, 24, 78, 50, 24, 32, 20, 24, 78, 20, 24, 32, 50, 62, 32, 20, 24, 78, 20, 62, 32, 50, 24, 32, 50, 24, 78, 20, 62, 32, 50, 62, 32, 50, 24, 32, 20, 24, 78, 50, 24, 78, 20, 24, 32, 20, 62, 32, 50, 62, 32, 50, 62, 32, 20, 62, 32, 50, 62, 32, 50, 24, 32, 50, 24, 32, 20, 62, 78, 20, 24, 78, 50, 62, 78, 50, 62, 32, 20, 24, 32, 50, 24, 32, 20, 24, 78, 50, 24, 78, 50, 62, 78, 20, 62, 78, 50, 62, 78, 20, 24, 78, 20, 24, 78, 50, 24, 32, 20, 62, 78, 50, 62, 78, 20, 24, 78, 50, 62, 78, 20, 24, 78, 50, 24, 78, 20, 24, 32, 50, 62, 32, 50, 24, 32, 20, 24, 78, 50, 24, 78, 20, 62, 78, 50, 62, 32, 50, 62, 78, 20, 24, 78, 20, 24, 78, 20, 24, 78, 20, 62, 32, 50, 24, 78, 20, 62, 78, 50, 24, 32, 50, 24, 32, 20, 62, 32, 20, 62, 32, 20, 62, 78, 50, 62, 78, 20, 62, 78, 50, 62, 32, 20, 62, 78, 20, 24, 32, 50, 62, 78, 50, 62, 32, 50, 24, 32, 20, 62, 32, 20, 24, 32, 20, 24, 32, 20, 24, 78, 50, 62, 32, 50, 24, 78, 20, 24, 32, 20, 62, 78, 20, 62, 78, 20, 24, 78, 50, 24, 32, 50, 24, 78, 20, 24, 78, 50, 24, 78, 20, 24, 32, 50, 62, 32, 50, 62, 32, 20, 24, 78, 50, 62, 78, 20, 24, 32, 20, 62, 78, 50, 24, 32, 20, 24, 32, 20, 62, 78, 20, 24, 78, 20, 24, 78, 20, 24, 78, 50, 24, 78, 20, 62, 78, 20, 62, 32, 20, 62, 78, 50, 24, 78, 20, 24, 32, 50, 24, 32, 50, 62, 32, 50, 62, 78, 50, 62, 78, 50, 24, 32, 20, 24, 78, 50, 24, 78, 20, 24, 32, 20, 24, 78, 50, 24, 78, 20, 24, 32, 20, 62, 78, 20, 24, 78, 50, 62, 32, 50, 62, 32, 20, 62, 78, 20, 24, 78, 20, 62, 32, 20, 62, 32, 20, 24, 32, 50, 62, 32, 50, 24, 32, 20, 24, 32, 50, 24, 78, 50, 62, 32, 20, 24, 78, 50, 62, 78, 50, 62, 78, 20, 24, 32, 20, 62, 78, 50, 62, 78, 50, 24, 78, 50, 24, 32, 50, 62, 78, 20, 62, 32, 50, 24, 32, 50, 24, 32, 50, 62, 78, 20, 24, 32, 50, 62, 32, 20, 24, 78, 20, 24, 32, 50, 62, 78, 20, 24, 32, 50, 24, 32, 50, 24, 32, 50, 62, 32, 20, 62, 78, 50, 62, 78, 20, 62, 32, 50, 62, 78, 20, 24, 32, 50, 62, 32, 50, 62, 78, 50, 62, 32, 50, 62, 78, 20, 62, 78, 50, 62, 78, 50, 62, 78, 50, 62, 32, 20, 24, 32, 50, 62, 32, 50, 62, 78, 20, 24, 78, 50, 62, 32, 20, 62, 78, 50, 62, 78, 20, 62, 32, 20, 62, 78, 20, 62, 78, 50, 24, 78, 50, 62, 32, 20, 24, 78, 50, 24, 78, 20, 62, 32, 20, 24, 32, 50, 24, 78, 50, 24, 78, 20, 24, 32, 50, 62, 32, 50, 24, 78, 20, 62, 78, 50, 24, 78, 50, 24, 32, 20, 24, 78, 50, 62, 32, 20, 62, 32, 50, 24, 78, 20, 62, 78, 50, 62, 78, 20, 24, 32, 50, 24, 32, 20, 62, 78, 50, 62, 32, 50, 62, 32, 20, 62, 78, 20, 62, 78, 20, 24, 78, 50, 24, 32, 20, 62, 32, 50, 24, 32, 20, 62, 78, 20, 24, 78, 20, 24, 78, 20, 24, 78, 20, 62, 78, 20, 62, 78, 50, 24, 78, 20, 24, 78, 20, 62, 32, 20, 62, 78, 20, 24, 32, 20, 24, 78, 20, 24, 78, 20, 62, 78, 50, 24, 78, 50, 24, 78, 20, 24, 78, 20, 62, 78, 20, 24, 32, 20, 24, 32, 50, 24, 78, 20, 62, 32, 50, 62, 32, 20, 62, 32, 50, 24, 32, 20, 62, 32, 50, 24, 78, 50, 24, 32, 20, 24, 32, 20, 24, 32, 50, 62, 32, 50, 24, 78, 50, 62, 32, 20, 62, 32, 50, 62, 78, 20, 62, 78, 50, 62, 78, 20, 24, 78, 20, 24, 32, 20, 24, 32, 50, 24, 32, 20, 24, 32, 20, 62, 32, 50, 24, 32, 50, 62, 32, 50, 24, 78, 20, 62, 32, 20, 24, 78, 20, 62, 78, 20, 24, 78, 20, 24, 78, 50, 24, 78, 20, 62, 32, 50, 24, 78, 50, 24, 32, 20, 62, 78, 50, 62, 32, 20, 62, 32, 20, 24, 78, 50, 24, 78, 50, 24, 78, 20, 62, 78, 20, 62, 78, 20, 24, 32, 20, 62, 32, 50, 62, 78, 50, 24, 78, 50, 24, 32, 20, 62, 32, 50, 24, 78, 50, 24, 32, 50, 24, 32, 20, 62, 32, 50, 24, 78, 20, 24, 78, 20, 24, 32, 20, 62, 78, 50, 62, 78, 50, 24, 78, 50, 62, 78, 50, 24, 32, 50, 24, 32, 20, 62, 32, 50, 24, 32, 20, 24, 32, 20, 62, 78, 20, 24, 32, 50, 62, 78, 20, 24, 78, 20, 24, 78, 50, 24, 78, 50, 62, 78, 20, 24, 78, 20, 62, 32, 50, 62, 78, 50, 62, 32, 20, 24, 78, 50, 62, 78, 20, 62, 78, 20, 24, 32, 20, 62, 78, 20, 24, 32, 50, 24, 32, 20, 62, 78, 50, 24, 32, 50, 24, 78, 20, 24, 78, 50, 24, 32, 20, 62, 32, 20, 62, 78, 20, 24, 32, 50, 62, 78, 20, 62, 78, 50, 24, 78, 20, 62, 78, 50, 62, 32, 20, 24, 78, 20, 24, 78, 20, 62, 32, 50, 62, 32, 20, 24, 32, 20, 24, 32, 50, 62, 78, 20, 24, 78, 20, 24, 32, 50, 62, 78, 50, 24, 32, 20, 24, 32, 20, 24, 78, 20, 62, 78, 50, 62, 78, 50, 24, 78, 20, 24, 78, 50, 62, 32, 50, 62, 78, 20, 62, 32, 50, 62, 32, 50, 24, 78, 20, 62, 78, 50, 62, 32, 50, 62, 78, 20, 24, 32, 50, 62, 32, 50, 24, 78, 20, 62, 32, 20, 24, 78, 50, 62, 78, 50, 24, 78, 50, 62, 78, 20, 62, 78, 20, 24, 78, 50, 24, 78, 20, 62, 78, 20, 62, 32, 20, 62, 78, 50, 24, 32, 50, 24, 32, 20, 24, 32, 50, 24, 78, 50, 24, 78, 20, 24, 78, 50, 62, 32, 20, 62, 32, 20, 24, 78, 20, 62, 78, 50, 24, 78, 50, 24, 32, 50, 24, 32, 20, 24, 78, 20, 24, 32, 50, 24, 32, 20, 24, 78, 20, 24, 78, 20, 24, 78, 20, 24, 78, 20, 62, 32, 20, 62, 78, 20, 62, 32, 50, 62, 32, 50, 24, 78, 20, 24, 32, 20, 62, 32, 20, 62, 32, 50, 24, 78, 50, 62, 78, 50, 24, 32, 20, 62, 78, 20, 24, 78, 20, 24, 78, 20, 62, 32, 50, 62, 78, 20, 24, 78, 50, 24, 78, 20, 62, 78, 20, 24, 78, 20, 24, 78, 50, 62, 32, 20, 62, 78, 50, 24, 32, 50, 24, 32, 50, 24, 32, 20, 62, 78, 50, 24, 78, 50, 24, 32, 50, 62, 78, 50, 24, 32, 50, 62, 32, 20, 24, 78, 50, 62, 32, 20, 62, 32, 20, 62, 78, 20, 62, 78, 50, 62, 78, 50, 24, 32, 50, 24, 78, 50, 24, 78, 20, 24, 78, 50, 24, 78, 50, 62, 78, 50, 62, 32, 20, 62, 32, 50, 24, 32, 50, 24, 78, 20, 24, 32, 20, 62, 32, 20, 62, 32, 50, 62, 78, 20, 24, 32, 50, 62, 78, 50, 62, 32, 50, 62, 78, 20, 62, 32, 50, 62, 78, 20, 24, 78, 20, 24, 32, 20, 62, 78, 50, 62, 32, 50, 62, 32, 50, 62, 78, 50, 24, 78, 50, 62, 32, 50, 62, 32, 50, 24, 32, 20, 24, 32, 50, 24, 32, 50, 62, 32, 20, 24, 32, 50, 62, 32, 50, 24, 32, 20, 24, 78, 20, 62, 32, 20, 62, 78, 20, 62, 32, 50, 62, 32, 20, 62, 78, 50, 24, 32, 50, 62, 78, 50, 24, 78, 50, 24, 78, 20, 24, 78, 20, 62, 78, 50, 24, 78, 20, 62, 32, 20, 62, 32, 20, 62, 32, 50, 62, 32, 20, 62, 32, 50, 24, 32, 50, 62, 78, 50, 62, 32, 20, 62, 32, 50, 62, 32, 20, 24, 78, 50, 62, 78, 20, 62, 78, 50, 24, 32, 50, 62, 32, 50, 24, 78, 20, 24, 32, 20, 62, 32, 20, 62, 32, 50, 62, 32, 20, 24, 78, 50, 62, 78, 20, 62, 78, 50, 24, 32, 20, 62, 32, 20, 62, 32, 20, 62, 78, 20, 62, 32, 20, 62, 78, 50, 62, 32, 20, 24, 32, 20, 24, 32, 50, 24, 78, 20, 24, 32, 50, 62, 78, 50, 62, 32, 50, 62, 78, 50, 24, 32, 50, 24, 32, 20, 24, 32, 20, 24, 78, 20, 62, 78, 50, 62, 78, 20, 24, 78, 20, 24, 78, 50, 62, 78, 20, 24, 32, 20, 24, 78, 20, 24, 32, 20, 62, 32, 20, 24, 32, 20, 62, 78, 20, 62, 32, 50, 24, 78, 50, 24, 78, 50, 62, 32, 50, 62, 32, 20, 62, 32, 20, 24, 32, 20, 62, 32, 50, 24, 32, 50, 24, 78, 20, 62, 78, 20, 62, 32, 20, 24, 78, 50, 62, 32, 20, 62, 32, 50, 24, 32, 20, 62, 78, 50, 24, 78, 50, 24, 32, 20, 24, 32, 50, 24, 32, 50, 62, 78, 20, 24, 32, 20, 62, 32, 50, 62, 32, 50, 24, 78, 20, 24, 32, 20, 24, 32, 20, 24, 78, 50, 62, 78, 50, 62, 32, 20, 62, 32, 20, 62, 32, 20, 62, 78, 50, 24, 32, 50, 62, 78, 20, 24, 78, 20, 62, 78, 50, 62, 32, 50, 62, 78, 50, 24, 78, 50, 62, 78, 20, 62, 32, 50, 24, 32, 50, 62, 78, 20, 24, 78, 20, 24, 78, 20, 62, 32, 50, 62, 32, 20, 24, 32, 20, 62, 78, 50, 62, 78, 50, 62, 32, 50, 24, 78, 50, 24, 78, 50, 24, 78, 50, 62, 32, 20, 24, 32, 50, 24, 32, 50, 62, 78, 50, 62, 78, 20, 62, 78, 50, 24, 78, 20, 62, 32, 20, 24, 78, 20, 24, 78, 20, 62, 32, 50, 24, 32, 50, 24, 32, 50, 62, 78, 20, 62, 78, 50, 24, 78, 50, 62, 78, 20, 24, 32, 50, 24, 32, 20, 24, 78, 50, 62, 32, 50, 24, 78, 50, 24, 78, 50, 62, 32, 20, 62, 78, 20, 62, 32, 20, 62, 32, 50, 24, 78, 50, 62, 78, 50, 24, 32, 50, 62, 78, 20, 62, 32, 20, 62, 32, 50, 62, 32, 50, 62, 78, 50, 62, 32, 20, 24, 78, 50, 24, 32, 20, 62, 32, 20, 62, 78, 20, 62, 78, 50, 62, 78, 20, 62, 32, 50, 62, 32, 50, 62, 78, 50, 62, 32, 20, 24, 78, 50, 62, 32, 50, 62, 78, 50, 24, 32, 20, 62, 78, 20, 24, 78, 20, 24, 78, 20, 62, 78, 20, 24, 32, 20, 24, 32, 20, 62, 78, 50, 62, 78, 20, 24, 32, 20, 24, 78, 50, 24, 32, 20, 24, 78, 20, 24, 32, 50, 24, 78, 20, 62, 32, 50, 62, 32, 20, 24, 32, 50, 62, 32, 20, 24, 78, 50, 24, 32, 20, 24, 32, 20, 62, 32, 20, 62, 78, 20, 24, 78, 20, 62, 78, 20, 62, 78, 20, 24, 78, 20, 24, 32, 50, 24, 78, 20, 62, 32, 50, 24, 32, 50, 24, 78, 20, 62, 78, 20, 24, 32, 20, 62, 32, 50, 62, 78, 50, 24, 32, 50, 62, 32, 20, 62, 32, 20, 62, 32, 20, 62, 32, 20, 24, 78, 20, 62, 78, 20, 62, 78, 20, 24, 78]);
trans_cost   = [6.5, 12.2, 12.43, 8.39, 7.43, 8.89, 8.78, 11.28, 10.58, 10.76, 8.3, 10.66, 7.54, 7.27, 11.37, 7.42, 7.56, 6.32, 7.08, 8.32, 7.99, 6.5, 5.51, 7.98, 11.72, 9.91, 5.95, 8.14, 7.84, 9.3, 9.69, 8.05, 6.04, 11.03, 2.52, 9.91, 9.69, 3.46, 7.17, 7.07, 8.86, 7.44, 6.04, 8.11, 9.94, 8.07, 7.89, 8.73, 9.2, 5.24, 10.31, 6.78, 8.52, 6.95, 7.58, 8.49, 7.43, 10.57, 2.92, 5.87, 5.67, 9.12, 7.57, 8.3, 8.84, 10.7, 10.43, 6.28, 8.73, 5.97, 5.46, 5.23, 10.51, 9.24, 9.22, 10.54, 5.1, 6.65, 7.77, 7.18, 6.06, 11.2, 9.65, 7.15, 6.92, 6.97, 7.44, 9.88, 13.78, 6.68, 6.85, 9.19, 5.87, 8.24, 5.16, 7.3, 8.51, 10.94, 9.15, 5.4, 8.84, 6.96, 6.35, 7.76, 8.1, 7.21, 7.47, 5.75, 10.95, 8.6, 8.11, 6.24, 6.83, 7.75, 9.77, 8.07, 3.9, 6.89, 5.43, 8.23, 10.4, 9.09, 8.45, 8.36, 8.64, 10.7, 8.04, 4.79, 5.85, 11.43, 8.71, 8.77, 11.71, 11.53, 5.73, 8.95, 10.6, 3.97, 9.77, 9.33, 10.16, 6.99, 12.73, 9.0, 7.64, 7.97, 6.43, 7.44, 8.06, 5.43, 7.62, 9.69, 4.86, 7.48, 6.48, 9.4, 8.49, 9.81, 10.45, 7.11, 3.55, 5.71, 6.16, 8.69, 7.44, 4.56, 6.86, 9.46, 9.52, 7.46, 7.78, 7.0, 8.08, 7.23, 7.89, 7.78, 5.07, 4.83, 12.02, 8.64, 9.36, 7.94, 6.98, 5.81, 5.88, 5.63, 7.41, 10.56, 7.1, 11.64, 5.51, 7.34, 8.09, 4.41, 8.29, 6.31, 10.46, 6.81, 8.25, 10.47, 6.51, 6.64, 5.89, 7.02, 6.37, 7.56, 8.41, 6.93, 10.16, 6.71, 7.54, 10.53, 7.87, 9.3, 6.99, 8.42, 8.63, 13.26, 8.61, 10.35, 6.15, 7.35, 5.84, 6.71, 11.1, 10.53, 11.08, 7.04, 10.48, 9.2, 12.89, 8.11, 8.09, 8.7, 7.39, 5.88, 10.26, 7.09, 7.17, 7.13, 8.13, 7.36, 3.92, 7.8, 9.23, 8.95, 7.31, 8.81, 9.63, 4.72, 9.14, 6.81, 9.39, 9.14, 10.29, 9.11, 9.89, 6.73, 10.7, 7.07, 6.54, 7.21, 6.66, 8.54, 8.22, 5.19, 8.69, 6.8, 3.87, 7.32, 11.06, 7.47, 10.17, 11.33, 6.38, 10.99, 6.83, 9.45, 7.94, 8.27, 8.82, 5.81, 6.43, 8.06, 3.66, 8.51, 8.59, 7.49, 5.85, 7.47, 4.42, 9.32, 11.31, 7.65, 7.79, 6.16, 11.91, 9.76, 12.09, 7.97, 6.83, 6.75, 8.22, 7.29, 9.91, 8.47, 6.32, 6.05, 10.01, 10.66, 9.33, 8.46, 9.03, 4.23, 9.16, 9.26, 10.36, 9.23, 8.83, 9.35, 4.14, 8.55, 7.85, 7.1, 10.35, 6.83, 10.15, 9.75, 8.85, 7.58, 6.77, 7.35, 9.18, 12.73, 8.33, 6.51, 9.27, 8.67, 8.41, 7.59, 6.82, 9.0, 5.45, 7.5, 7.26, 6.44, 6.27, 9.87, 8.29, 7.15, 9.24, 6.74, 7.31, 7.09, 10.64, 5.5, 10.47, 12.54, 7.46, 9.56, 5.71, 7.14, 7.91, 7.07, 9.32, 8.75, 6.36, 8.59, 10.04, 4.11, 4.6, 2.53, 8.21, 7.28, 9.0, 11.38, 6.17, 7.84, 9.29, 4.97, 7.54, 6.59, 9.21, 5.45, 4.44, 5.81, 10.3, 9.01, 4.13, 10.97, 4.69, 6.82, 6.66, 6.67, 5.53, 9.23, 5.46, 6.86, 6.61, 8.4, 11.04, 10.98, 7.39, 7.58, 7.56, 11.79, 8.01, 9.12, 4.69, 4.79, 9.29, 10.22, 9.16, 9.18, 9.81, 6.74, 5.87, 6.43, 8.26, 8.0, 6.09, 6.6, 9.25, 7.24, 10.08, 7.72, 7.75, 10.23, 8.95, 4.42, 8.14, 7.99, 9.03, 7.97, 9.55, 8.02, 10.92, 8.64, 6.86, 6.77, 4.48, 7.93, 7.6, 10.91, 4.17, 4.48, 10.11, 8.51, 7.05, 8.11, 7.77, 6.0, 6.65, 10.67, 6.25, 9.45, 5.99, 9.56, 8.03, 9.86, 4.77, 7.3, 9.69, 11.3, 4.7, 7.5, 7.06, 6.57, 6.98, 6.35, 6.7, 14.87, 8.32, 8.25, 8.01, 9.94, 4.77, 8.9, 11.79, 8.71, 2.41, 8.99, 7.52, 7.06, 8.96, 4.38, 10.83, 8.91, 6.5, 9.5, 6.84, 6.26, 9.87, 8.45, 6.31, 7.45, 7.84, 6.64, 6.52, 4.47, 7.84, 6.35, 11.82, 9.64, 8.5, 6.75, 10.04, 11.95, 5.64, 6.58, 6.96, 6.27, 6.32, 5.64, 9.96, 8.28, 5.24, 6.76, 8.15, 7.8, 8.9, 4.36, 6.69, 6.62, 10.7, 10.29, 6.32, 12.55, 6.35, 7.21, 8.95, 9.58, 11.19, 7.6, 6.42, 9.94, 6.64, 8.27, 9.52, 4.72, 8.85, 8.26, 7.23, 5.56, 8.09, 6.98, 7.58, 8.01, 9.31, 7.68, 5.21, 9.25, 8.46, 6.32, 4.62, 10.47, 7.67, 5.9, 11.19, 5.69, 3.57, 4.88, 11.1, 9.04, 7.93, 10.79, 7.79, 8.94, 7.09, 4.27, 10.89, 4.84, 6.14, 9.86, 9.02, 6.22, 6.4, 11.34, 10.06, 5.97, 8.18, 6.89, 8.89, 6.71, 5.85, 4.56, 6.47, 7.85, 12.4, 10.79, 8.93, 5.82, 7.45, 8.18, 9.65, 12.49, 7.17, 7.17, 10.96, 10.13, 6.71, 7.94, 8.22, 9.21, 6.51, 9.07, 12.57, 7.84, 11.97, 8.39, 9.6, 8.4, 4.28, 10.21, 9.22, 8.85, 10.9, 7.49, 10.62, 5.77, 6.53, 5.95, 7.51, 9.46, 8.97, 7.72, 4.49, 9.16, 9.2, 3.63, 6.99, 7.67, 5.45, 8.57, 9.4, 10.81, 8.59, 9.55, 9.01, 9.22, 8.12, 5.97, 8.98, 6.83, 9.62, 8.86, 6.94, 9.12, 10.37, 10.04, 4.18, 7.79, 8.48, 8.55, 3.74, 11.08, 6.14, 7.83, 5.27, 10.27, 8.45, 11.78, 7.66, 5.19, 11.38, 7.47, 9.05, 7.87, 6.93, 8.29, 7.9, 5.53, 10.83, 7.41, 7.42, 7.27, 6.9, 10.55, 6.72, 8.08, 5.78, 9.34, 5.29, 8.75, 5.45, 6.8, 7.99, 3.86, 9.72, 8.19, 8.07, 6.36, 6.53, 7.57, 6.02, 7.7, 8.89, 4.83, 8.8, 11.65, 5.37, 8.96, 6.17, 4.89, 7.16, 8.01, 7.95, 8.25, 6.46, 8.0, 8.55, 10.5, 6.4, 9.84, 6.82, 6.76, 10.42, 6.96, 10.64, 4.73, 8.42, 9.37, 12.47, 9.6, 8.5, 8.65, 8.36, 9.26, 8.52, 8.97, 8.54, 10.27, 7.87, 11.13, 9.65, 5.02, 9.37, 8.74, 8.63, 8.59, 6.76, 8.35, 8.17, 10.1, 7.53, 8.34, 9.31, 10.13, 8.72, 7.38, 7.34, 5.03, 7.24, 12.23, 11.11, 5.12, 8.03, 7.62, 4.42, 10.51, 9.53, 12.76, 8.13, 11.87, 10.62, 10.88, 7.71, 6.23, 6.19, 10.69, 9.48, 4.23, 6.09, 6.01, 10.53, 7.98, 8.21, 8.65, 11.12, 9.55, 6.39, 9.56, 8.14, 8.19, 7.44, 8.6, 2.7, 8.81, 10.08, 8.64, 7.35, 6.89, 9.17, 4.85, 10.9, 5.87, 10.17, 9.47, 7.57, 4.54, 5.5, 8.28, 10.19, 10.44, 10.46, 7.61, 7.81, 6.82, 6.16, 7.96, 6.82, 5.43, 8.25, 9.45, 10.21, 8.94, 5.28, 6.42, 6.18, 6.64, 8.96, 6.76, 7.46, 6.88, 7.5, 5.78, 6.91, 9.58, 7.2, 9.78, 5.23, 7.06, 7.03, 10.23, 13.39, 6.11, 8.87, 8.24, 7.34, 11.34, 7.53, 7.4, 10.01, 9.26, 9.14, 9.18, 7.02, 7.12, 9.31, 9.0, 6.23, 7.19, 7.16, 6.87, 7.56, 6.84, 10.2, 11.74, 6.88, 7.55, 7.48, 11.84, 6.82, 7.66, 7.59, 6.54, 11.34, 4.68, 9.67, 6.44, 6.32, 7.98, 8.4, 9.07, 10.55, 11.25, 6.6, 6.27, 5.41, 6.98, 13.51, 6.64, 6.11, 11.45, 11.19, 10.16, 8.61, 5.59, 10.85, 6.83, 9.1, 10.25, 8.15, 9.39, 9.56, 8.98, 12.17, 9.36, 8.39, 7.53, 8.13, 9.06, 11.31, 7.57, 6.55, 9.78, 7.17, 6.52, 6.92, 6.89, 8.61, 9.18, 6.76, 9.24, 6.12, 8.85, 8.2, 7.01, 8.94, 7.56, 11.15, 6.68, 5.25, 9.51, 7.18, 8.57, 7.88, 8.4, 10.79, 8.22, 6.23, 7.51, 4.29, 11.13, 11.52, 9.58, 9.42, 5.57, 4.45, 3.47, 8.63, 9.04, 5.16, 8.77, 9.11, 7.25, 10.16, 8.16, 4.86, 9.33, 7.7, 8.75, 12.9, 6.54, 8.67, 8.88, 9.19, 10.13, 4.51, 6.73, 4.95, 8.48, 7.7, 7.42, 7.79, 8.68, 7.81, 8.4, 8.62, 7.81, 5.99, 7.34, 7.34, 9.39, 7.77, 6.4, 6.62, 5.9, 11.01, 6.52, 10.21, 9.4, 4.11, 8.57, 6.05, 8.01, 6.22, 7.99, 9.87, 7.24, 10.81, 5.02, 8.94, 6.64, 7.9, 5.22, 10.53, 6.6, 8.45, 10.25, 6.85, 6.89, 7.57, 6.4, 8.6, 9.32, 6.2, 5.24, 4.91, 7.89, 8.71, 5.71, 3.31, 8.96, 6.24, 9.1, 12.33, 9.8, 6.9, 6.01, 9.59, 12.55, 8.15, 9.58, 7.63, 6.24, 8.38, 6.72, 7.47, 9.15, 9.4, 10.08, 4.87, 5.49, 6.96, 8.57, 9.49, 9.8, 10.06, 7.18, 8.98, 7.44, 11.07, 8.23, 8.17, 9.79, 8.6, 4.82, 7.08, 6.32];
